c A SAT instance generated from a 3-CNF formula that had 28 clauses and 7 variables
p cnf 7 28
2 1 3 0
-6 1 -5 0
-2 7 -1 0
3 7 -4 0
-3 -4 -7 0
-7 -6 4 0
1 5 -2 0
7 6 -2 0
4 -7 -1 0
-2 5 -6 0
7 1 6 0
-7 -3 -6 0
1 -4 -5 0
1 -3 6 0
-5 -6 -3 0
3 1 4 0
-7 4 3 0
5 -2 -3 0
5 3 2 0
6 -4 -3 0
6 2 -3 0
5 -3 6 0
5 -1 -3 0
6 -4 -7 0
-6 -2 4 0
2 7 5 0
1 -3 -2 0
4 -7 -5 0
